-60.0 10.0 10.0 4.0 7.0 8.0 2.0 9.0 9.0 1.0 
10.0 -40.0 4.0 5.0 9.0 2.0 1.0 9.0 0.0 0.0 
10.0 4.0 -52.0 3.0 5.0 10.0 3.0 6.0 2.0 9.0 
4.0 5.0 3.0 -33.0 5.0 10.0 0.0 1.0 5.0 0.0 
7.0 9.0 5.0 5.0 -54.0 6.0 6.0 4.0 10.0 2.0 
8.0 2.0 10.0 10.0 6.0 -47.0 1.0 1.0 5.0 4.0 
2.0 1.0 3.0 0.0 6.0 1.0 -27.0 1.0 4.0 9.0 
9.0 9.0 6.0 1.0 4.0 1.0 1.0 -43.0 10.0 2.0 
9.0 0.0 2.0 5.0 10.0 5.0 4.0 10.0 -55.0 10.0 
1.0 0.0 9.0 0.0 2.0 4.0 9.0 2.0 10.0 -37.0 

